NAME camouflage_srl_ilp
* Max problem is converted into Min one
ROWS
 N  OBJ
 L  constraint1_6270
 L  constraint1_1541
 L  constraint1_1540
 L  constraint2_6270
 L  constraint2_6271
 L  constraint2_6272
 L  constraint2_6273
 L  constraint2_1540
 L  constraint2_1541
 L  constraint2_1542
 L  constraint2_1543
COLUMNS
    MARKER    'MARKER'                 'INTORG'
    Z_627_0_0  OBJ       -2.2638065955087328e-02
    Z_627_0_0  constraint1_6270  1
    Z_627_0_0  constraint2_6270  1
    Z_627_0_1  OBJ       -7.1320013444058450e-01
    Z_627_0_1  constraint1_6270  1
    Z_627_0_1  constraint2_6271  1
    Z_627_0_2  OBJ       -1.8819782649043238e-03
    Z_627_0_2  constraint1_6270  1
    Z_627_0_2  constraint2_6272  1
    Z_627_0_3  OBJ       -4.0823388525398192e-02
    Z_627_0_3  constraint1_6270  1
    Z_627_0_3  constraint2_6273  1
    Z_627_0_4  OBJ       -1.2145643281402549e-01
    Z_627_0_4  constraint1_6270  1
    Z_154_1_0  OBJ       -2.9722568528526712e-03
    Z_154_1_0  constraint1_1541  1
    Z_154_1_0  constraint2_1540  1
    Z_154_1_1  OBJ       -6.1975317845379082e-04
    Z_154_1_1  constraint1_1541  1
    Z_154_1_1  constraint2_1541  1
    Z_154_1_2  OBJ       -5.3200588429498041e-01
    Z_154_1_2  constraint1_1541  1
    Z_154_1_2  constraint2_1542  1
    Z_154_1_3  OBJ       -3.1165049209098462e-03
    Z_154_1_3  constraint1_1541  1
    Z_154_1_3  constraint2_1543  1
    Z_154_1_4  OBJ       -3.6128560075280314e-01
    Z_154_1_4  constraint1_1541  1
    Z_154_0_0  OBJ       -2.9722568528526712e-03
    Z_154_0_0  constraint1_1540  1
    Z_154_0_0  constraint2_1540  1
    Z_154_0_1  OBJ       -6.1975317845379082e-04
    Z_154_0_1  constraint1_1540  1
    Z_154_0_1  constraint2_1541  1
    Z_154_0_2  OBJ       -5.3200588429498041e-01
    Z_154_0_2  constraint1_1540  1
    Z_154_0_2  constraint2_1542  1
    Z_154_0_3  OBJ       -3.1165049209098462e-03
    Z_154_0_3  constraint1_1540  1
    Z_154_0_3  constraint2_1543  1
    Z_154_0_4  OBJ       -3.6128560075280314e-01
    Z_154_0_4  constraint1_1540  1
    MARKER    'MARKER'                 'INTEND'
RHS
    RHS1      constraint1_6270  1
    RHS1      constraint1_1541  1
    RHS1      constraint1_1540  1
    RHS1      constraint2_6270  1
    RHS1      constraint2_6271  1
    RHS1      constraint2_6272  1
    RHS1      constraint2_6273  1
    RHS1      constraint2_1540  1
    RHS1      constraint2_1541  1
    RHS1      constraint2_1542  1
    RHS1      constraint2_1543  1
BOUNDS
 UP BND1      Z_627_0_0  1
 UP BND1      Z_627_0_1  1
 UP BND1      Z_627_0_2  1
 UP BND1      Z_627_0_3  1
 UP BND1      Z_627_0_4  1
 UP BND1      Z_154_1_0  1
 UP BND1      Z_154_1_1  1
 UP BND1      Z_154_1_2  1
 UP BND1      Z_154_1_3  1
 UP BND1      Z_154_1_4  1
 UP BND1      Z_154_0_0  1
 UP BND1      Z_154_0_1  1
 UP BND1      Z_154_0_2  1
 UP BND1      Z_154_0_3  1
 UP BND1      Z_154_0_4  1
QUADOBJ
    Z_627_0_0  Z_154_1_0  -1.3018723559119896e-02
    Z_627_0_1  Z_154_1_1  -1.3018723559119896e-02
    Z_627_0_2  Z_154_1_2  -1.3018723559119896e-02
    Z_627_0_3  Z_154_1_3  -1.3018723559119896e-02
    Z_627_0_4  Z_154_1_4  -1.3018723559119896e-02
ENDATA
